
Presolve eliminates 2542880 constraints and 2537314 variables.
Adjusted problem:
1170286 variables:
	1161086 binary variables
	9200 linear variables
1183568 constraints, all linear; 9267597 nonzeros
	18802 equality constraints
	1164766 inequality constraints
1 linear objective; 1151886 nonzeros.

Gurobi 9.1.2: mipgap 0.01
outlev 1
timelim 3600
Gurobi Optimizer version 9.1.2 build v9.1.2rc0 (linux64)
Thread count: 4 physical cores, 4 logical processors, using up to 4 threads
Optimize a model with 1183568 rows, 1170286 columns and 9267597 nonzeros
Model fingerprint: 0x55e6f7df
Variable types: 9200 continuous, 1161086 integer (1161086 binary)
Coefficient statistics:
  Matrix range     [8e-02, 1e+02]
  Objective range  [4e+01, 2e+04]
  Bounds range     [1e+00, 1e+02]
  RHS range        [1e+00, 1e+02]
Presolve removed 0 rows and 0 columns (presolve time = 17s) ...
Presolve removed 0 rows and 0 columns (presolve time = 20s) ...
Presolve removed 0 rows and 0 columns (presolve time = 27s) ...
Presolve removed 0 rows and 0 columns (presolve time = 30s) ...
Presolve removed 0 rows and 0 columns (presolve time = 35s) ...
Presolve removed 0 rows and 0 columns (presolve time = 40s) ...
Presolve removed 0 rows and 0 columns (presolve time = 45s) ...
Presolve removed 18400 rows and 0 columns (presolve time = 56s) ...
Presolve removed 18400 rows and 0 columns (presolve time = 61s) ...
Presolve removed 18400 rows and 0 columns (presolve time = 78s) ...
Presolve removed 18400 rows and 0 columns (presolve time = 91s) ...
Presolve removed 18400 rows and 0 columns
Presolve time: 91.29s
Presolved: 1165168 rows, 1170286 columns, 5829488 nonzeros
Variable types: 9200 continuous, 1161086 integer (1161086 binary)

Deterministic concurrent LP optimizer: primal simplex, dual simplex, and barrier
Showing barrier log only...

Root barrier log...

Elapsed ordering time = 65s
Elapsed ordering time = 65s
Elapsed ordering time = 70s
Elapsed ordering time = 75s
Elapsed ordering time = 80s
Elapsed ordering time = 85s
Elapsed ordering time = 90s
Elapsed ordering time = 95s
Elapsed ordering time = 100s
Elapsed ordering time = 105s
Elapsed ordering time = 110s
Elapsed ordering time = 115s
Elapsed ordering time = 120s
Elapsed ordering time = 125s
Elapsed ordering time = 130s
Elapsed ordering time = 135s
Elapsed ordering time = 140s
Elapsed ordering time = 145s
Elapsed ordering time = 150s
Elapsed ordering time = 155s
Elapsed ordering time = 160s
Elapsed ordering time = 165s
Elapsed ordering time = 170s
Elapsed ordering time = 175s
Elapsed ordering time = 180s
Elapsed ordering time = 185s
Elapsed ordering time = 190s
Elapsed ordering time = 195s
Elapsed ordering time = 200s
Elapsed ordering time = 408s
Elapsed ordering time = 424s
Elapsed ordering time = 429s
Elapsed ordering time = 433s
Elapsed ordering time = 438s
Elapsed ordering time = 443s
Elapsed ordering time = 448s
Elapsed ordering time = 452s
Elapsed ordering time = 457s
Elapsed ordering time = 462s
Elapsed ordering time = 468s
Elapsed ordering time = 473s
Elapsed ordering time = 478s
Elapsed ordering time = 483s
Elapsed ordering time = 488s
Elapsed ordering time = 493s
Elapsed ordering time = 498s
Elapsed ordering time = 503s
Elapsed ordering time = 508s
Elapsed ordering time = 512s
Elapsed ordering time = 517s
Elapsed ordering time = 522s
Elapsed ordering time = 527s
Elapsed ordering time = 531s
Elapsed ordering time = 536s
Elapsed ordering time = 541s
Elapsed ordering time = 546s
Elapsed ordering time = 551s
Elapsed ordering time = 555s
Elapsed ordering time = 561s
Elapsed ordering time = 567s
Elapsed ordering time = 571s
Elapsed ordering time = 575s
Elapsed ordering time = 589s
Elapsed ordering time = 590s
Elapsed ordering time = 595s
Elapsed ordering time = 600s
Elapsed ordering time = 605s
Elapsed ordering time = 610s
Elapsed ordering time = 615s
Elapsed ordering time = 620s
Elapsed ordering time = 625s
Elapsed ordering time = 630s
Elapsed ordering time = 635s
Elapsed ordering time = 640s
Elapsed ordering time = 645s
Elapsed ordering time = 650s
Elapsed ordering time = 655s
Elapsed ordering time = 660s
Elapsed ordering time = 665s
Elapsed ordering time = 670s
Elapsed ordering time = 675s
Elapsed ordering time = 680s
Elapsed ordering time = 685s
Elapsed ordering time = 690s
Elapsed ordering time = 695s
Elapsed ordering time = 832s
Elapsed ordering time = 847s
Elapsed ordering time = 852s
Elapsed ordering time = 857s
Elapsed ordering time = 862s
Elapsed ordering time = 866s
Elapsed ordering time = 871s
Elapsed ordering time = 876s
Elapsed ordering time = 882s
Elapsed ordering time = 887s
Elapsed ordering time = 892s
Elapsed ordering time = 897s
Elapsed ordering time = 902s
Elapsed ordering time = 907s
Elapsed ordering time = 912s
Elapsed ordering time = 916s
Elapsed ordering time = 921s
Elapsed ordering time = 926s
Elapsed ordering time = 931s
Elapsed ordering time = 935s
Elapsed ordering time = 941s
Elapsed ordering time = 946s
Elapsed ordering time = 951s
Elapsed ordering time = 956s
Elapsed ordering time = 961s
Elapsed ordering time = 965s
Elapsed ordering time = 971s
Elapsed ordering time = 976s
Elapsed ordering time = 981s
Elapsed ordering time = 987s
Elapsed ordering time = 990s
Elapsed ordering time = 995s
Elapsed ordering time = 1001s
Elapsed ordering time = 1010s
Elapsed ordering time = 1015s
Elapsed ordering time = 1020s
Elapsed ordering time = 1025s
Elapsed ordering time = 1030s
Elapsed ordering time = 1035s
Elapsed ordering time = 1040s
Elapsed ordering time = 1045s
Elapsed ordering time = 1050s
Elapsed ordering time = 1055s
Elapsed ordering time = 1060s
Elapsed ordering time = 1065s
Elapsed ordering time = 1070s
Elapsed ordering time = 1075s
Elapsed ordering time = 1080s
Elapsed ordering time = 1085s
Elapsed ordering time = 1090s
Elapsed ordering time = 1095s
Elapsed ordering time = 1100s
Elapsed ordering time = 1105s
Elapsed ordering time = 1236s
Elapsed ordering time = 1247s
Elapsed ordering time = 1250s
Elapsed ordering time = 1257s
Elapsed ordering time = 1261s
Elapsed ordering time = 1268s
Elapsed ordering time = 1272s
Elapsed ordering time = 1276s
Elapsed ordering time = 1283s
Elapsed ordering time = 1289s
Elapsed ordering time = 1293s
Elapsed ordering time = 1298s
Elapsed ordering time = 1301s
Elapsed ordering time = 1306s
Elapsed ordering time = 1310s
Elapsed ordering time = 1318s
Elapsed ordering time = 1322s
Elapsed ordering time = 1327s
Elapsed ordering time = 1331s
Elapsed ordering time = 1335s
Elapsed ordering time = 1341s
Elapsed ordering time = 1345s
Elapsed ordering time = 1351s
Elapsed ordering time = 1356s
Elapsed ordering time = 1361s
Elapsed ordering time = 1365s
Elapsed ordering time = 1370s
Elapsed ordering time = 1376s
Elapsed ordering time = 1385s
Elapsed ordering time = 1385s
Elapsed ordering time = 1390s
Elapsed ordering time = 1395s
Elapsed ordering time = 1400s
Elapsed ordering time = 1405s
Elapsed ordering time = 1410s
Elapsed ordering time = 1415s
Elapsed ordering time = 1420s
Elapsed ordering time = 1425s
Elapsed ordering time = 1430s
Elapsed ordering time = 1435s
Elapsed ordering time = 1440s
Elapsed ordering time = 1445s
Elapsed ordering time = 1450s
Elapsed ordering time = 1455s
Elapsed ordering time = 1460s
Elapsed ordering time = 1465s
Elapsed ordering time = 1470s
Elapsed ordering time = 1475s
Elapsed ordering time = 1480s
Elapsed ordering time = 1485s
Elapsed ordering time = 1597s
Elapsed ordering time = 1613s
Elapsed ordering time = 1619s
Elapsed ordering time = 1625s
Elapsed ordering time = 1631s
Elapsed ordering time = 1637s
Elapsed ordering time = 1642s
Elapsed ordering time = 1648s
Elapsed ordering time = 1654s
Elapsed ordering time = 1659s
Elapsed ordering time = 1664s
Elapsed ordering time = 1668s
Elapsed ordering time = 1675s
Elapsed ordering time = 1680s
Elapsed ordering time = 1685s
Elapsed ordering time = 1690s
Elapsed ordering time = 1699s
Elapsed ordering time = 1704s
Elapsed ordering time = 1709s
Elapsed ordering time = 1714s
Elapsed ordering time = 1719s
Elapsed ordering time = 1724s
Elapsed ordering time = 1729s
Elapsed ordering time = 1735s
Elapsed ordering time = 1737s
Elapsed ordering time = 1741s
Elapsed ordering time = 1746s
Elapsed ordering time = 1751s
Elapsed ordering time = 1755s
Elapsed ordering time = 1761s
Elapsed ordering time = 1766s
Elapsed ordering time = 1771s
Elapsed ordering time = 1775s
Elapsed ordering time = 1785s
Elapsed ordering time = 1790s
Elapsed ordering time = 1795s
Elapsed ordering time = 1800s
Elapsed ordering time = 1805s
Elapsed ordering time = 1810s
Elapsed ordering time = 1815s
Elapsed ordering time = 1820s
Elapsed ordering time = 1825s
Elapsed ordering time = 1830s
Elapsed ordering time = 1835s
Elapsed ordering time = 1840s
Elapsed ordering time = 1845s
Elapsed ordering time = 1850s
Elapsed ordering time = 1855s
Elapsed ordering time = 1860s
Elapsed ordering time = 1865s
Elapsed ordering time = 1870s
Elapsed ordering time = 1875s
Elapsed ordering time = 1880s
Elapsed ordering time = 1885s
Elapsed ordering time = 1890s
Elapsed ordering time = 1895s
Elapsed ordering time = 1900s
Elapsed ordering time = 1905s
Elapsed ordering time = 1910s
Elapsed ordering time = 2033s
Elapsed ordering time = 2044s
Elapsed ordering time = 2048s
Elapsed ordering time = 2052s
Elapsed ordering time = 2056s
Elapsed ordering time = 2063s
Elapsed ordering time = 2067s
Elapsed ordering time = 2071s
Elapsed ordering time = 2078s
Elapsed ordering time = 2083s
Elapsed ordering time = 2087s
Elapsed ordering time = 2091s
Elapsed ordering time = 2098s
Elapsed ordering time = 2102s
Elapsed ordering time = 2106s
Elapsed ordering time = 2111s
Elapsed ordering time = 2119s
Elapsed ordering time = 2123s
Elapsed ordering time = 2127s
Elapsed ordering time = 2131s
Elapsed ordering time = 2137s
Elapsed ordering time = 2141s
Elapsed ordering time = 2147s
Elapsed ordering time = 2151s
Elapsed ordering time = 2156s
Elapsed ordering time = 2161s
Elapsed ordering time = 2166s
Elapsed ordering time = 2171s
Elapsed ordering time = 2176s
Elapsed ordering time = 2181s
Elapsed ordering time = 2185s
Elapsed ordering time = 2190s
Elapsed ordering time = 2195s
Elapsed ordering time = 2200s
Elapsed ordering time = 2205s
Elapsed ordering time = 2210s
Elapsed ordering time = 2215s
Elapsed ordering time = 2220s
Elapsed ordering time = 2225s
Elapsed ordering time = 2230s
Elapsed ordering time = 2235s
Elapsed ordering time = 2240s
Elapsed ordering time = 2245s
Elapsed ordering time = 2250s
Elapsed ordering time = 2255s
Elapsed ordering time = 2260s
Elapsed ordering time = 2265s
Elapsed ordering time = 2270s
Elapsed ordering time = 2275s
Elapsed ordering time = 2280s
Elapsed ordering time = 2285s
Ordering time: 2289.05s

Barrier statistics:
 Dense cols : 253
 AA' NZ     : 2.785e+08
 Factor NZ  : 1.696e+10 (roughly 140.0 GBytes of memory)
 Factor Ops : 3.384e+14 (roughly 60000 seconds per iteration)
 Threads    : 1

Barrier performed 0 iterations in 2816.77 seconds
Error termination

Concurrent spin time: 782.51s (can be avoided by choosing Method=3)

Solved with dual simplex

Root relaxation: objective 1.175736e+05, 127405 iterations, 3407.94 seconds

    Nodes    |    Current Node    |     Objective Bounds      |     Work
 Expl Unexpl |  Obj  Depth IntInf | Incumbent    BestBd   Gap | It/Node Time

     0     0 117573.573    0 1596          - 117573.573      -     - 3606s

Explored 0 nodes (127405 simplex iterations) in 3606.95 seconds
Thread count was 4 (of 4 available processors)

Solution count 0

Time limit reached
Best objective -, best bound 1.175740000000e+05, gap -
Gurobi 9.1.2: time limit without a feasible solution
127405 simplex iterations
No basis.
No primal or dual variables returned.
sum{(i,j) in Arcs, k in K: i != j} c[i,j]*x[i,j,k] + sum{(i,j) in Arcs, 
  k in K} cto[i,j]*x[i,j,k] = 0

sum{(i,j) in Arcs, k in K: i != j} c[i,j]*x[i,j,k] = 0

sum{(i,j) in Arcs, k in K: i != j} cto[i,j]*x[i,j,k] = 0

COST = 0

